param n := 25;
param s := 1;
param t := 22;
set A :=
1 3 
1 8 
1 12 
1 19 
2 10 
2 17 
3 6 
3 9 
3 15 
4 14 
4 25 
5 14 
6 2 
6 4 
6 9 
6 10 
6 19 
6 24 
7 3 
7 4 
7 9 
7 15 
7 16 
7 20 
7 22 
8 3 
8 16 
8 23 
9 8 
9 16 
9 19 
9 21 
10 8 
10 9 
10 13 
10 15 
10 23 
11 2 
11 3 
11 5 
11 7 
11 25 
12 2 
12 8 
12 23 
12 24 
13 19 
14 9 
14 12 
14 16 
14 19 
14 23 
15 5 
15 10 
16 11 
16 23 
17 5 
17 9 
17 16 
17 19 
17 24 
17 25 
18 5 
18 7 
18 16 
18 21 
19 2 
19 3 
19 18 
20 8 
20 9 
20 11 
20 13 
20 16 
20 18 
20 22 
20 25 
21 4 
21 14 
21 23 
23 14 
24 4 
24 12 
24 20 
25 13 
;
param: capacity:=
1 3 8.4 
1 8 9.1 
1 12 5.5 
1 19 4.6 
2 10 6.6 
2 17 4.9 
3 6 8.9 
3 9 6.9 
3 15 4.3 
4 14 5.7 
4 25 4.1 
5 14 8.3 
6 2 9.9 
6 4 7.7 
6 9 5.8 
6 10 7.3 
6 19 3.9 
6 24 4.3 
7 3 5.6 
7 4 6.5 
7 9 6.4 
7 15 4.9 
7 16 7.1 
7 20 5.5 
7 22 9.3 
8 3 5.8 
8 16 10.0 
8 23 6.5 
9 8 6.9 
9 16 6.1 
9 19 6.2 
9 21 8.7 
10 8 6.6 
10 9 8.8 
10 13 5.9 
10 15 5.5 
10 23 4.5 
11 2 9.9 
11 3 5.3 
11 5 3.9 
11 7 3.2 
11 25 4.5 
12 2 3.5 
12 8 3.9 
12 23 9.8 
12 24 6.3 
13 19 8.8 
14 9 8.0 
14 12 8.8 
14 16 4.3 
14 19 4.6 
14 23 6.7 
15 5 5.1 
15 10 6.8 
16 11 3.2 
16 23 3.2 
17 5 3.8 
17 9 9.0 
17 16 9.4 
17 19 7.6 
17 24 5.2 
17 25 5.5 
18 5 5.9 
18 7 8.5 
18 16 3.1 
18 21 5.3 
19 2 7.6 
19 3 3.4 
19 18 3.3 
20 8 4.7 
20 9 3.2 
20 11 5.5 
20 13 6.2 
20 16 5.0 
20 18 8.4 
20 22 3.6 
20 25 6.4 
21 4 4.0 
21 14 8.4 
21 23 6.0 
23 14 9.0 
24 4 9.6 
24 12 9.1 
24 20 5.9 
25 13 6.5 
;
param: cost:=
1 3 4.0 
1 8 8.8 
1 12 2.2 
1 19 7.8 
2 10 3.0 
2 17 3.7 
3 6 4.9 
3 9 6.0 
3 15 7.0 
4 14 7.0 
4 25 2.5 
5 14 4.2 
6 2 4.0 
6 4 2.1 
6 9 1.6 
6 10 1.9 
6 19 6.0 
6 24 3.9 
7 3 9.4 
7 4 6.2 
7 9 4.4 
7 15 1.5 
7 16 9.4 
7 20 4.9 
7 22 1.4 
8 3 5.5 
8 16 8.6 
8 23 7.0 
9 8 8.6 
9 16 8.3 
9 19 1.5 
9 21 4.3 
10 8 2.3 
10 9 1.2 
10 13 3.7 
10 15 1.8 
10 23 8.0 
11 2 5.0 
11 3 2.8 
11 5 9.9 
11 7 3.5 
11 25 1.2 
12 2 10.0 
12 8 8.0 
12 23 1.2 
12 24 6.5 
13 19 6.5 
14 9 5.2 
14 12 9.0 
14 16 5.1 
14 19 5.2 
14 23 7.1 
15 5 4.7 
15 10 7.5 
16 11 3.1 
16 23 6.4 
17 5 4.5 
17 9 1.6 
17 16 4.3 
17 19 2.7 
17 24 4.9 
17 25 5.1 
18 5 5.5 
18 7 7.3 
18 16 9.7 
18 21 8.9 
19 2 6.9 
19 3 9.4 
19 18 6.9 
20 8 4.2 
20 9 5.5 
20 11 2.6 
20 13 2.4 
20 16 6.6 
20 18 5.9 
20 22 4.1 
20 25 8.0 
21 4 2.7 
21 14 1.2 
21 23 4.8 
23 14 7.3 
24 4 3.1 
24 12 2.1 
24 20 6.2 
25 13 3.1 
;